PGM/src/moissac4.pre.uai
BAYES
462
3 3 3 3 3 3 3 3 3 3 3 3 3 3 3 3 3 3 3 3 3 3 3 3 3 3 3 3 3 3 3 3 3 3 3 3 3 3 3 3 3 3 3 3 3 3 3 3 3 3 3 3 3 3 3 3 3 3 3 3 3 3 3 3 3 3 3 3 3 3 3 3 3 3 3 3 3 3 3 3 3 3 3 3 3 3 3 3 3 3 3 3 3 3 3 3 3 3 3 3 3 3 3 3 3 3 3 3 3 3 3 3 3 3 3 3 3 3 3 3 3 3 3 3 3 3 3 3 3 3 3 3 3 3 3 3 3 3 3 3 3 3 3 3 3 3 3 3 3 3 3 3 3 3 3 3 3 3 3 3 3 3 3 3 3 3 3 3 3 3 3 3 3 3 3 3 3 3 3 3 3 3 3 3 3 3 3 3 3 3 3 3 3 3 3 3 3 3 3 3 3 3 3 3 3 3 3 3 3 3 3 3 3 3 3 3 3 3 3 3 3 3 3 3 3 3 3 3 3 3 3 3 3 3 3 3 3 3 3 3 3 3 3 3 3 3 3 3 3 3 3 3 3 3 3 3 3 3 3 3 3 3 3 3 3 3 3 3 3 3 3 3 3 3 3 3 3 3 3 3 3 3 3 3 3 3 3 3 3 3 3 3 3 3 3 3 3 3 3 3 3 3 3 3 3 3 3 3 3 3 3 3 3 3 3 3 3 3 3 3 3 3 3 3 3 3 3 3 3 3 3 3 3 3 3 3 3 3 3 3 3 3 3 3 3 3 3 3 3 3 3 3 3 3 3 3 3 3 3 3 3 3 3 3 3 3 3 3 3 3 3 3 3 3 3 3 3 3 3 3 3 3 3 3 3 3 3 3 3 3 3 3 3 3 3 3 3 3 3 3 3 3 3 3 3 3 3 3 3 3 3 3 3 3 3 3 3 3 3 3 3 3 3 3 3 3 3 3 3 3 3 3 3 3 3 3 3 3 3 3 3 3 3 3 3 3 3 3 3 3 3 3 3 3 3 3 3 3 3 3 3 3
462
1 0
1 1
1 2
3 2 185 3
1 4
3 2 152 5
3 2 152 6
3 153 97 7
3 279 187 8
3 0 228 9
3 2 124 10
3 2 140 11
3 2 194 12
3 2 194 13
3 2 133 14
3 0 244 15
3 279 179 16
3 0 151 17
3 0 151 18
3 0 182 19
3 0 182 20
3 2 205 21
3 2 178 22
3 0 167 23
3 279 223 24
3 0 174 25
3 279 135 26
3 279 128 27
3 279 91 28
3 153 169 29
3 153 232 30
3 115 230 31
3 115 238 32
3 115 82 33
3 153 120 34
3 115 224 35
3 153 131 36
3 153 159 37
3 153 159 38
3 2 152 39
3 2 194 40
3 2 194 41
3 2 258 42
3 2 140 43
3 2 140 44
3 2 124 45
3 2 151 46
3 2 174 47
3 279 205 48
3 279 251 49
3 279 224 50
3 279 269 51
3 279 226 52
3 279 254 53
3 279 254 54
3 115 228 55
3 279 253 56
3 279 244 57
3 115 140 58
3 0 124 59
3 1 262 60
3 115 151 61
3 1 174 62
3 1 4 63
3 1 236 64
3 0 256 65
3 0 256 66
3 279 250 67
3 279 250 68
3 279 5 69
3 279 269 70
3 279 241 71
3 279 131 72
1 73
1 74
1 75
1 76
1 77
1 78
1 79
1 80
1 81
1 82
1 83
1 84
1 85
1 86
1 87
1 88
1 89
1 90
3 1 76 91
1 92
1 93
1 94
1 95
1 96
1 97
1 98
1 99
1 100
1 101
3 1 83 102
3 1 84 103
1 104
3 1 75 105
3 1 77 106
3 1 86 107
1 108
1 109
1 110
1 111
1 112
1 113
1 114
1 115
1 116
1 117
1 118
1 119
1 120
1 121
1 122
3 280 74 123
3 280 74 124
3 280 80 125
3 280 80 126
1 127
1 128
3 280 73 129
1 130
1 131
1 132
3 115 101 133
1 134
3 1 88 135
3 280 112 136
3 279 96 137
3 279 79 138
1 139
3 279 87 140
3 0 114 141
3 0 73 142
3 0 107 143
3 0 107 144
3 280 108 145
3 0 116 146
3 280 117 147
3 279 109 148
1 149
1 150
1 151
1 152
1 153
1 154
3 115 118 155
1 156
1 157
1 158
1 159
3 0 110 160
3 0 112 161
3 0 112 162
3 279 96 163
3 279 96 164
3 279 94 165
3 282 98 166
3 2 106 167
3 2 106 168
1 169
1 170
3 281 119 171
3 2 130 172
3 115 139 173
3 115 144 174
3 153 149 175
3 153 121 176
3 282 131 177
1 178
3 2 123 179
3 2 81 180
3 281 113 181
1 182
3 282 133 183
3 281 128 184
3 282 124 185
1 186
3 281 122 187
3 2 89 188
3 282 132 189
3 282 132 190
3 281 91 191
3 153 90 192
3 281 99 193
3 115 93 194
3 282 92 195
3 281 104 196
3 0 117 197
3 1 127 198
3 1 118 199
3 1 134 200
3 1 118 201
3 1 127 202
3 1 126 203
3 1 96 204
3 1 85 205
3 1 85 206
3 1 118 207
3 2 111 208
3 2 111 209
1 210
3 280 135 211
3 0 145 212
3 281 155 213
3 0 151 214
3 280 152 215
3 0 157 216
3 281 81 217
3 279 82 218
3 0 94 219
3 281 113 220
3 0 127 221
3 281 89 222
3 2 133 223
1 224
3 281 95 225
1 226
3 280 111 227
3 281 100 228
3 281 100 229
3 279 145 230
3 281 185 231
1 232
3 280 184 233
3 279 182 234
3 279 182 235
3 115 210 236
3 281 186 237
3 280 78 238
3 115 92 239
3 280 140 240
1 241
3 115 176 242
3 115 176 243
3 115 110 244
3 115 91 245
3 115 127 246
3 280 158 247
3 279 150 248
3 115 167 249
3 115 128 250
3 115 128 251
3 280 82 252
3 280 82 253
3 115 132 254
3 115 89 255
1 256
3 279 152 257
3 115 219 258
3 2 185 259
3 279 187 260
3 279 187 261
1 262
3 115 89 263
3 153 150 264
3 153 150 265
3 153 82 266
3 153 82 267
3 153 131 268
3 115 105 269
3 153 194 270
3 115 156 271
3 153 124 272
3 115 154 273
3 115 120 274
3 115 120 275
3 153 128 276
3 279 135 277
3 153 170 278
1 279
1 280
1 281
1 282
2 3 283
2 5 284
2 6 285
2 7 286
2 8 287
2 10 288
2 11 289
2 12 290
2 13 291
2 14 292
2 15 293
2 16 294
2 17 295
2 18 296
2 20 297
2 21 298
2 22 299
2 23 300
2 24 301
2 25 302
2 26 303
2 27 304
2 28 305
2 29 306
2 30 307
2 31 308
2 32 309
2 33 310
2 34 311
2 36 312
2 37 313
2 38 314
2 39 315
2 40 316
2 41 317
2 42 318
2 43 319
2 44 320
2 45 321
2 46 322
2 47 323
2 48 324
2 49 325
2 50 326
2 51 327
2 52 328
2 53 329
2 54 330
2 55 331
2 56 332
2 58 333
2 59 334
2 60 335
2 61 336
2 62 337
2 63 338
2 64 339
2 65 340
2 66 341
2 67 342
2 68 343
2 69 344
2 70 345
2 71 346
2 72 347
2 91 348
2 102 349
2 103 350
2 105 351
2 106 352
2 107 353
2 123 354
2 124 355
2 125 356
2 126 357
2 129 358
2 133 359
2 135 360
2 136 361
2 137 362
2 138 363
2 140 364
2 141 365
2 142 366
2 144 367
2 145 368
2 147 369
2 155 370
2 161 371
2 162 372
2 163 373
2 164 374
2 165 375
2 166 376
2 167 377
2 168 378
2 171 379
2 172 380
2 173 381
2 174 382
2 175 383
2 177 384
2 179 385
2 180 386
2 183 387
2 184 388
2 185 389
2 187 390
2 188 391
2 189 392
2 190 393
2 191 394
2 192 395
2 193 396
2 194 397
2 195 398
2 196 399
2 197 400
2 198 401
2 199 402
2 200 403
2 201 404
2 202 405
2 203 406
2 205 407
2 206 408
2 207 409
2 208 410
2 209 411
2 211 412
2 212 413
2 213 414
2 214 415
2 215 416
2 216 417
2 217 418
2 218 419
2 219 420
2 220 421
2 221 422
2 222 423
2 223 424
2 225 425
2 227 426
2 228 427
2 229 428
2 230 429
2 231 430
2 233 431
2 234 432
2 235 433
2 236 434
2 238 435
2 239 436
2 242 437
2 244 438
2 245 439
2 246 440
2 247 441
2 248 442
2 249 443
2 250 444
2 251 445
2 253 446
2 254 447
2 257 448
2 258 449
2 259 450
2 260 451
2 261 452
2 263 453
2 266 454
2 267 455
2 269 456
2 271 457
2 274 458
2 275 459
2 276 460
2 277 461

3
0.360671 0.479776 0.159553

3
0.360671 0.479776 0.159553

3
0.360671 0.479776 0.159553

27
1 0 0
0.5 0.5 0
0 1 0
0.5 0.5 0
0.25 0.5 0.25
0 0.5 0.5
0 1 0
0 0.5 0.5
0 0 1

3
0.360671 0.479776 0.159553

27
1 0 0
0.5 0.5 0
0 1 0
0.5 0.5 0
0.25 0.5 0.25
0 0.5 0.5
0 1 0
0 0.5 0.5
0 0 1

27
1 0 0
0.5 0.5 0
0 1 0
0.5 0.5 0
0.25 0.5 0.25
0 0.5 0.5
0 1 0
0 0.5 0.5
0 0 1

27
1 0 0
0.5 0.5 0
0 1 0
0.5 0.5 0
0.25 0.5 0.25
0 0.5 0.5
0 1 0
0 0.5 0.5
0 0 1

27
1 0 0
0.5 0.5 0
0 1 0
0.5 0.5 0
0.25 0.5 0.25
0 0.5 0.5
0 1 0
0 0.5 0.5
0 0 1

27
1 0 0
0.5 0.5 0
0 1 0
0.5 0.5 0
0.25 0.5 0.25
0 0.5 0.5
0 1 0
0 0.5 0.5
0 0 1

27
1 0 0
0.5 0.5 0
0 1 0
0.5 0.5 0
0.25 0.5 0.25
0 0.5 0.5
0 1 0
0 0.5 0.5
0 0 1

27
1 0 0
0.5 0.5 0
0 1 0
0.5 0.5 0
0.25 0.5 0.25
0 0.5 0.5
0 1 0
0 0.5 0.5
0 0 1

27
1 0 0
0.5 0.5 0
0 1 0
0.5 0.5 0
0.25 0.5 0.25
0 0.5 0.5
0 1 0
0 0.5 0.5
0 0 1

27
1 0 0
0.5 0.5 0
0 1 0
0.5 0.5 0
0.25 0.5 0.25
0 0.5 0.5
0 1 0
0 0.5 0.5
0 0 1

27
1 0 0
0.5 0.5 0
0 1 0
0.5 0.5 0
0.25 0.5 0.25
0 0.5 0.5
0 1 0
0 0.5 0.5
0 0 1

27
1 0 0
0.5 0.5 0
0 1 0
0.5 0.5 0
0.25 0.5 0.25
0 0.5 0.5
0 1 0
0 0.5 0.5
0 0 1

27
1 0 0
0.5 0.5 0
0 1 0
0.5 0.5 0
0.25 0.5 0.25
0 0.5 0.5
0 1 0
0 0.5 0.5
0 0 1

27
1 0 0
0.5 0.5 0
0 1 0
0.5 0.5 0
0.25 0.5 0.25
0 0.5 0.5
0 1 0
0 0.5 0.5
0 0 1

27
1 0 0
0.5 0.5 0
0 1 0
0.5 0.5 0
0.25 0.5 0.25
0 0.5 0.5
0 1 0
0 0.5 0.5
0 0 1

27
1 0 0
0.5 0.5 0
0 1 0
0.5 0.5 0
0.25 0.5 0.25
0 0.5 0.5
0 1 0
0 0.5 0.5
0 0 1

27
1 0 0
0.5 0.5 0
0 1 0
0.5 0.5 0
0.25 0.5 0.25
0 0.5 0.5
0 1 0
0 0.5 0.5
0 0 1

27
1 0 0
0.5 0.5 0
0 1 0
0.5 0.5 0
0.25 0.5 0.25
0 0.5 0.5
0 1 0
0 0.5 0.5
0 0 1

27
1 0 0
0.5 0.5 0
0 1 0
0.5 0.5 0
0.25 0.5 0.25
0 0.5 0.5
0 1 0
0 0.5 0.5
0 0 1

27
1 0 0
0.5 0.5 0
0 1 0
0.5 0.5 0
0.25 0.5 0.25
0 0.5 0.5
0 1 0
0 0.5 0.5
0 0 1

27
1 0 0
0.5 0.5 0
0 1 0
0.5 0.5 0
0.25 0.5 0.25
0 0.5 0.5
0 1 0
0 0.5 0.5
0 0 1

27
1 0 0
0.5 0.5 0
0 1 0
0.5 0.5 0
0.25 0.5 0.25
0 0.5 0.5
0 1 0
0 0.5 0.5
0 0 1

27
1 0 0
0.5 0.5 0
0 1 0
0.5 0.5 0
0.25 0.5 0.25
0 0.5 0.5
0 1 0
0 0.5 0.5
0 0 1

27
1 0 0
0.5 0.5 0
0 1 0
0.5 0.5 0
0.25 0.5 0.25
0 0.5 0.5
0 1 0
0 0.5 0.5
0 0 1

27
1 0 0
0.5 0.5 0
0 1 0
0.5 0.5 0
0.25 0.5 0.25
0 0.5 0.5
0 1 0
0 0.5 0.5
0 0 1

27
1 0 0
0.5 0.5 0
0 1 0
0.5 0.5 0
0.25 0.5 0.25
0 0.5 0.5
0 1 0
0 0.5 0.5
0 0 1

27
1 0 0
0.5 0.5 0
0 1 0
0.5 0.5 0
0.25 0.5 0.25
0 0.5 0.5
0 1 0
0 0.5 0.5
0 0 1

27
1 0 0
0.5 0.5 0
0 1 0
0.5 0.5 0
0.25 0.5 0.25
0 0.5 0.5
0 1 0
0 0.5 0.5
0 0 1

27
1 0 0
0.5 0.5 0
0 1 0
0.5 0.5 0
0.25 0.5 0.25
0 0.5 0.5
0 1 0
0 0.5 0.5
0 0 1

27
1 0 0
0.5 0.5 0
0 1 0
0.5 0.5 0
0.25 0.5 0.25
0 0.5 0.5
0 1 0
0 0.5 0.5
0 0 1

27
1 0 0
0.5 0.5 0
0 1 0
0.5 0.5 0
0.25 0.5 0.25
0 0.5 0.5
0 1 0
0 0.5 0.5
0 0 1

27
1 0 0
0.5 0.5 0
0 1 0
0.5 0.5 0
0.25 0.5 0.25
0 0.5 0.5
0 1 0
0 0.5 0.5
0 0 1

27
1 0 0
0.5 0.5 0
0 1 0
0.5 0.5 0
0.25 0.5 0.25
0 0.5 0.5
0 1 0
0 0.5 0.5
0 0 1

27
1 0 0
0.5 0.5 0
0 1 0
0.5 0.5 0
0.25 0.5 0.25
0 0.5 0.5
0 1 0
0 0.5 0.5
0 0 1

27
1 0 0
0.5 0.5 0
0 1 0
0.5 0.5 0
0.25 0.5 0.25
0 0.5 0.5
0 1 0
0 0.5 0.5
0 0 1

27
1 0 0
0.5 0.5 0
0 1 0
0.5 0.5 0
0.25 0.5 0.25
0 0.5 0.5
0 1 0
0 0.5 0.5
0 0 1

27
1 0 0
0.5 0.5 0
0 1 0
0.5 0.5 0
0.25 0.5 0.25
0 0.5 0.5
0 1 0
0 0.5 0.5
0 0 1

27
1 0 0
0.5 0.5 0
0 1 0
0.5 0.5 0
0.25 0.5 0.25
0 0.5 0.5
0 1 0
0 0.5 0.5
0 0 1

27
1 0 0
0.5 0.5 0
0 1 0
0.5 0.5 0
0.25 0.5 0.25
0 0.5 0.5
0 1 0
0 0.5 0.5
0 0 1

27
1 0 0
0.5 0.5 0
0 1 0
0.5 0.5 0
0.25 0.5 0.25
0 0.5 0.5
0 1 0
0 0.5 0.5
0 0 1

27
1 0 0
0.5 0.5 0
0 1 0
0.5 0.5 0
0.25 0.5 0.25
0 0.5 0.5
0 1 0
0 0.5 0.5
0 0 1

27
1 0 0
0.5 0.5 0
0 1 0
0.5 0.5 0
0.25 0.5 0.25
0 0.5 0.5
0 1 0
0 0.5 0.5
0 0 1

27
1 0 0
0.5 0.5 0
0 1 0
0.5 0.5 0
0.25 0.5 0.25
0 0.5 0.5
0 1 0
0 0.5 0.5
0 0 1

27
1 0 0
0.5 0.5 0
0 1 0
0.5 0.5 0
0.25 0.5 0.25
0 0.5 0.5
0 1 0
0 0.5 0.5
0 0 1

27
1 0 0
0.5 0.5 0
0 1 0
0.5 0.5 0
0.25 0.5 0.25
0 0.5 0.5
0 1 0
0 0.5 0.5
0 0 1

27
1 0 0
0.5 0.5 0
0 1 0
0.5 0.5 0
0.25 0.5 0.25
0 0.5 0.5
0 1 0
0 0.5 0.5
0 0 1

27
1 0 0
0.5 0.5 0
0 1 0
0.5 0.5 0
0.25 0.5 0.25
0 0.5 0.5
0 1 0
0 0.5 0.5
0 0 1

27
1 0 0
0.5 0.5 0
0 1 0
0.5 0.5 0
0.25 0.5 0.25
0 0.5 0.5
0 1 0
0 0.5 0.5
0 0 1

27
1 0 0
0.5 0.5 0
0 1 0
0.5 0.5 0
0.25 0.5 0.25
0 0.5 0.5
0 1 0
0 0.5 0.5
0 0 1

27
1 0 0
0.5 0.5 0
0 1 0
0.5 0.5 0
0.25 0.5 0.25
0 0.5 0.5
0 1 0
0 0.5 0.5
0 0 1

27
1 0 0
0.5 0.5 0
0 1 0
0.5 0.5 0
0.25 0.5 0.25
0 0.5 0.5
0 1 0
0 0.5 0.5
0 0 1

27
1 0 0
0.5 0.5 0
0 1 0
0.5 0.5 0
0.25 0.5 0.25
0 0.5 0.5
0 1 0
0 0.5 0.5
0 0 1

27
1 0 0
0.5 0.5 0
0 1 0
0.5 0.5 0
0.25 0.5 0.25
0 0.5 0.5
0 1 0
0 0.5 0.5
0 0 1

27
1 0 0
0.5 0.5 0
0 1 0
0.5 0.5 0
0.25 0.5 0.25
0 0.5 0.5
0 1 0
0 0.5 0.5
0 0 1

27
1 0 0
0.5 0.5 0
0 1 0
0.5 0.5 0
0.25 0.5 0.25
0 0.5 0.5
0 1 0
0 0.5 0.5
0 0 1

27
1 0 0
0.5 0.5 0
0 1 0
0.5 0.5 0
0.25 0.5 0.25
0 0.5 0.5
0 1 0
0 0.5 0.5
0 0 1

27
1 0 0
0.5 0.5 0
0 1 0
0.5 0.5 0
0.25 0.5 0.25
0 0.5 0.5
0 1 0
0 0.5 0.5
0 0 1

27
1 0 0
0.5 0.5 0
0 1 0
0.5 0.5 0
0.25 0.5 0.25
0 0.5 0.5
0 1 0
0 0.5 0.5
0 0 1

27
1 0 0
0.5 0.5 0
0 1 0
0.5 0.5 0
0.25 0.5 0.25
0 0.5 0.5
0 1 0
0 0.5 0.5
0 0 1

27
1 0 0
0.5 0.5 0
0 1 0
0.5 0.5 0
0.25 0.5 0.25
0 0.5 0.5
0 1 0
0 0.5 0.5
0 0 1

27
1 0 0
0.5 0.5 0
0 1 0
0.5 0.5 0
0.25 0.5 0.25
0 0.5 0.5
0 1 0
0 0.5 0.5
0 0 1

27
1 0 0
0.5 0.5 0
0 1 0
0.5 0.5 0
0.25 0.5 0.25
0 0.5 0.5
0 1 0
0 0.5 0.5
0 0 1

27
1 0 0
0.5 0.5 0
0 1 0
0.5 0.5 0
0.25 0.5 0.25
0 0.5 0.5
0 1 0
0 0.5 0.5
0 0 1

27
1 0 0
0.5 0.5 0
0 1 0
0.5 0.5 0
0.25 0.5 0.25
0 0.5 0.5
0 1 0
0 0.5 0.5
0 0 1

27
1 0 0
0.5 0.5 0
0 1 0
0.5 0.5 0
0.25 0.5 0.25
0 0.5 0.5
0 1 0
0 0.5 0.5
0 0 1

27
1 0 0
0.5 0.5 0
0 1 0
0.5 0.5 0
0.25 0.5 0.25
0 0.5 0.5
0 1 0
0 0.5 0.5
0 0 1

27
1 0 0
0.5 0.5 0
0 1 0
0.5 0.5 0
0.25 0.5 0.25
0 0.5 0.5
0 1 0
0 0.5 0.5
0 0 1

27
1 0 0
0.5 0.5 0
0 1 0
0.5 0.5 0
0.25 0.5 0.25
0 0.5 0.5
0 1 0
0 0.5 0.5
0 0 1

27
1 0 0
0.5 0.5 0
0 1 0
0.5 0.5 0
0.25 0.5 0.25
0 0.5 0.5
0 1 0
0 0.5 0.5
0 0 1

3
0.360671 0.479776 0.159553

3
0.360671 0.479776 0.159553

3
0.360671 0.479776 0.159553

3
0.360671 0.479776 0.159553

3
0.360671 0.479776 0.159553

3
0.360671 0.479776 0.159553

3
0.360671 0.479776 0.159553

3
0.360671 0.479776 0.159553

3
0.360671 0.479776 0.159553

3
0.360671 0.479776 0.159553

3
0.360671 0.479776 0.159553

3
0.360671 0.479776 0.159553

3
0.360671 0.479776 0.159553

3
0.360671 0.479776 0.159553

3
0.360671 0.479776 0.159553

3
0.360671 0.479776 0.159553

3
0.360671 0.479776 0.159553

3
0.360671 0.479776 0.159553

27
1 0 0
0.5 0.5 0
0 1 0
0.5 0.5 0
0.25 0.5 0.25
0 0.5 0.5
0 1 0
0 0.5 0.5
0 0 1

3
0.360671 0.479776 0.159553

3
0.360671 0.479776 0.159553

3
0.360671 0.479776 0.159553

3
0.360671 0.479776 0.159553

3
0.360671 0.479776 0.159553

3
0.360671 0.479776 0.159553

3
0.360671 0.479776 0.159553

3
0.360671 0.479776 0.159553

3
0.360671 0.479776 0.159553

3
0.360671 0.479776 0.159553

27
1 0 0
0.5 0.5 0
0 1 0
0.5 0.5 0
0.25 0.5 0.25
0 0.5 0.5
0 1 0
0 0.5 0.5
0 0 1

27
1 0 0
0.5 0.5 0
0 1 0
0.5 0.5 0
0.25 0.5 0.25
0 0.5 0.5
0 1 0
0 0.5 0.5
0 0 1

3
0.360671 0.479776 0.159553

27
1 0 0
0.5 0.5 0
0 1 0
0.5 0.5 0
0.25 0.5 0.25
0 0.5 0.5
0 1 0
0 0.5 0.5
0 0 1

27
1 0 0
0.5 0.5 0
0 1 0
0.5 0.5 0
0.25 0.5 0.25
0 0.5 0.5
0 1 0
0 0.5 0.5
0 0 1

27
1 0 0
0.5 0.5 0
0 1 0
0.5 0.5 0
0.25 0.5 0.25
0 0.5 0.5
0 1 0
0 0.5 0.5
0 0 1

3
0.360671 0.479776 0.159553

3
0.360671 0.479776 0.159553

3
0.360671 0.479776 0.159553

3
0.360671 0.479776 0.159553

3
0.360671 0.479776 0.159553

3
0.360671 0.479776 0.159553

3
0.360671 0.479776 0.159553

3
0.360671 0.479776 0.159553

3
0.360671 0.479776 0.159553

3
0.360671 0.479776 0.159553

3
0.360671 0.479776 0.159553

3
0.360671 0.479776 0.159553

3
0.360671 0.479776 0.159553

3
0.360671 0.479776 0.159553

3
0.360671 0.479776 0.159553

27
1 0 0
0.5 0.5 0
0 1 0
0.5 0.5 0
0.25 0.5 0.25
0 0.5 0.5
0 1 0
0 0.5 0.5
0 0 1

27
1 0 0
0.5 0.5 0
0 1 0
0.5 0.5 0
0.25 0.5 0.25
0 0.5 0.5
0 1 0
0 0.5 0.5
0 0 1

27
1 0 0
0.5 0.5 0
0 1 0
0.5 0.5 0
0.25 0.5 0.25
0 0.5 0.5
0 1 0
0 0.5 0.5
0 0 1

27
1 0 0
0.5 0.5 0
0 1 0
0.5 0.5 0
0.25 0.5 0.25
0 0.5 0.5
0 1 0
0 0.5 0.5
0 0 1

3
0.360671 0.479776 0.159553

3
0.360671 0.479776 0.159553

27
1 0 0
0.5 0.5 0
0 1 0
0.5 0.5 0
0.25 0.5 0.25
0 0.5 0.5
0 1 0
0 0.5 0.5
0 0 1

3
0.360671 0.479776 0.159553

3
0.360671 0.479776 0.159553

3
0.360671 0.479776 0.159553

27
1 0 0
0.5 0.5 0
0 1 0
0.5 0.5 0
0.25 0.5 0.25
0 0.5 0.5
0 1 0
0 0.5 0.5
0 0 1

3
0.360671 0.479776 0.159553

27
1 0 0
0.5 0.5 0
0 1 0
0.5 0.5 0
0.25 0.5 0.25
0 0.5 0.5
0 1 0
0 0.5 0.5
0 0 1

27
1 0 0
0.5 0.5 0
0 1 0
0.5 0.5 0
0.25 0.5 0.25
0 0.5 0.5
0 1 0
0 0.5 0.5
0 0 1

27
1 0 0
0.5 0.5 0
0 1 0
0.5 0.5 0
0.25 0.5 0.25
0 0.5 0.5
0 1 0
0 0.5 0.5
0 0 1

27
1 0 0
0.5 0.5 0
0 1 0
0.5 0.5 0
0.25 0.5 0.25
0 0.5 0.5
0 1 0
0 0.5 0.5
0 0 1

3
0.360671 0.479776 0.159553

27
1 0 0
0.5 0.5 0
0 1 0
0.5 0.5 0
0.25 0.5 0.25
0 0.5 0.5
0 1 0
0 0.5 0.5
0 0 1

27
1 0 0
0.5 0.5 0
0 1 0
0.5 0.5 0
0.25 0.5 0.25
0 0.5 0.5
0 1 0
0 0.5 0.5
0 0 1

27
1 0 0
0.5 0.5 0
0 1 0
0.5 0.5 0
0.25 0.5 0.25
0 0.5 0.5
0 1 0
0 0.5 0.5
0 0 1

27
1 0 0
0.5 0.5 0
0 1 0
0.5 0.5 0
0.25 0.5 0.25
0 0.5 0.5
0 1 0
0 0.5 0.5
0 0 1

27
1 0 0
0.5 0.5 0
0 1 0
0.5 0.5 0
0.25 0.5 0.25
0 0.5 0.5
0 1 0
0 0.5 0.5
0 0 1

27
1 0 0
0.5 0.5 0
0 1 0
0.5 0.5 0
0.25 0.5 0.25
0 0.5 0.5
0 1 0
0 0.5 0.5
0 0 1

27
1 0 0
0.5 0.5 0
0 1 0
0.5 0.5 0
0.25 0.5 0.25
0 0.5 0.5
0 1 0
0 0.5 0.5
0 0 1

27
1 0 0
0.5 0.5 0
0 1 0
0.5 0.5 0
0.25 0.5 0.25
0 0.5 0.5
0 1 0
0 0.5 0.5
0 0 1

27
1 0 0
0.5 0.5 0
0 1 0
0.5 0.5 0
0.25 0.5 0.25
0 0.5 0.5
0 1 0
0 0.5 0.5
0 0 1

3
0.360671 0.479776 0.159553

3
0.360671 0.479776 0.159553

3
0.360671 0.479776 0.159553

3
0.360671 0.479776 0.159553

3
0.360671 0.479776 0.159553

3
0.360671 0.479776 0.159553

27
1 0 0
0.5 0.5 0
0 1 0
0.5 0.5 0
0.25 0.5 0.25
0 0.5 0.5
0 1 0
0 0.5 0.5
0 0 1

3
0.360671 0.479776 0.159553

3
0.360671 0.479776 0.159553

3
0.360671 0.479776 0.159553

3
0.360671 0.479776 0.159553

27
1 0 0
0.5 0.5 0
0 1 0
0.5 0.5 0
0.25 0.5 0.25
0 0.5 0.5
0 1 0
0 0.5 0.5
0 0 1

27
1 0 0
0.5 0.5 0
0 1 0
0.5 0.5 0
0.25 0.5 0.25
0 0.5 0.5
0 1 0
0 0.5 0.5
0 0 1

27
1 0 0
0.5 0.5 0
0 1 0
0.5 0.5 0
0.25 0.5 0.25
0 0.5 0.5
0 1 0
0 0.5 0.5
0 0 1

27
1 0 0
0.5 0.5 0
0 1 0
0.5 0.5 0
0.25 0.5 0.25
0 0.5 0.5
0 1 0
0 0.5 0.5
0 0 1

27
1 0 0
0.5 0.5 0
0 1 0
0.5 0.5 0
0.25 0.5 0.25
0 0.5 0.5
0 1 0
0 0.5 0.5
0 0 1

27
1 0 0
0.5 0.5 0
0 1 0
0.5 0.5 0
0.25 0.5 0.25
0 0.5 0.5
0 1 0
0 0.5 0.5
0 0 1

27
1 0 0
0.5 0.5 0
0 1 0
0.5 0.5 0
0.25 0.5 0.25
0 0.5 0.5
0 1 0
0 0.5 0.5
0 0 1

27
1 0 0
0.5 0.5 0
0 1 0
0.5 0.5 0
0.25 0.5 0.25
0 0.5 0.5
0 1 0
0 0.5 0.5
0 0 1

27
1 0 0
0.5 0.5 0
0 1 0
0.5 0.5 0
0.25 0.5 0.25
0 0.5 0.5
0 1 0
0 0.5 0.5
0 0 1

3
0.360671 0.479776 0.159553

3
0.360671 0.479776 0.159553

27
1 0 0
0.5 0.5 0
0 1 0
0.5 0.5 0
0.25 0.5 0.25
0 0.5 0.5
0 1 0
0 0.5 0.5
0 0 1

27
1 0 0
0.5 0.5 0
0 1 0
0.5 0.5 0
0.25 0.5 0.25
0 0.5 0.5
0 1 0
0 0.5 0.5
0 0 1

27
1 0 0
0.5 0.5 0
0 1 0
0.5 0.5 0
0.25 0.5 0.25
0 0.5 0.5
0 1 0
0 0.5 0.5
0 0 1

27
1 0 0
0.5 0.5 0
0 1 0
0.5 0.5 0
0.25 0.5 0.25
0 0.5 0.5
0 1 0
0 0.5 0.5
0 0 1

27
1 0 0
0.5 0.5 0
0 1 0
0.5 0.5 0
0.25 0.5 0.25
0 0.5 0.5
0 1 0
0 0.5 0.5
0 0 1

27
1 0 0
0.5 0.5 0
0 1 0
0.5 0.5 0
0.25 0.5 0.25
0 0.5 0.5
0 1 0
0 0.5 0.5
0 0 1

27
1 0 0
0.5 0.5 0
0 1 0
0.5 0.5 0
0.25 0.5 0.25
0 0.5 0.5
0 1 0
0 0.5 0.5
0 0 1

3
0.360671 0.479776 0.159553

27
1 0 0
0.5 0.5 0
0 1 0
0.5 0.5 0
0.25 0.5 0.25
0 0.5 0.5
0 1 0
0 0.5 0.5
0 0 1

27
1 0 0
0.5 0.5 0
0 1 0
0.5 0.5 0
0.25 0.5 0.25
0 0.5 0.5
0 1 0
0 0.5 0.5
0 0 1

27
1 0 0
0.5 0.5 0
0 1 0
0.5 0.5 0
0.25 0.5 0.25
0 0.5 0.5
0 1 0
0 0.5 0.5
0 0 1

3
0.360671 0.479776 0.159553

27
1 0 0
0.5 0.5 0
0 1 0
0.5 0.5 0
0.25 0.5 0.25
0 0.5 0.5
0 1 0
0 0.5 0.5
0 0 1

27
1 0 0
0.5 0.5 0
0 1 0
0.5 0.5 0
0.25 0.5 0.25
0 0.5 0.5
0 1 0
0 0.5 0.5
0 0 1

27
1 0 0
0.5 0.5 0
0 1 0
0.5 0.5 0
0.25 0.5 0.25
0 0.5 0.5
0 1 0
0 0.5 0.5
0 0 1

3
0.360671 0.479776 0.159553

27
1 0 0
0.5 0.5 0
0 1 0
0.5 0.5 0
0.25 0.5 0.25
0 0.5 0.5
0 1 0
0 0.5 0.5
0 0 1

27
1 0 0
0.5 0.5 0
0 1 0
0.5 0.5 0
0.25 0.5 0.25
0 0.5 0.5
0 1 0
0 0.5 0.5
0 0 1

27
1 0 0
0.5 0.5 0
0 1 0
0.5 0.5 0
0.25 0.5 0.25
0 0.5 0.5
0 1 0
0 0.5 0.5
0 0 1

27
1 0 0
0.5 0.5 0
0 1 0
0.5 0.5 0
0.25 0.5 0.25
0 0.5 0.5
0 1 0
0 0.5 0.5
0 0 1

27
1 0 0
0.5 0.5 0
0 1 0
0.5 0.5 0
0.25 0.5 0.25
0 0.5 0.5
0 1 0
0 0.5 0.5
0 0 1

27
1 0 0
0.5 0.5 0
0 1 0
0.5 0.5 0
0.25 0.5 0.25
0 0.5 0.5
0 1 0
0 0.5 0.5
0 0 1

27
1 0 0
0.5 0.5 0
0 1 0
0.5 0.5 0
0.25 0.5 0.25
0 0.5 0.5
0 1 0
0 0.5 0.5
0 0 1

27
1 0 0
0.5 0.5 0
0 1 0
0.5 0.5 0
0.25 0.5 0.25
0 0.5 0.5
0 1 0
0 0.5 0.5
0 0 1

27
1 0 0
0.5 0.5 0
0 1 0
0.5 0.5 0
0.25 0.5 0.25
0 0.5 0.5
0 1 0
0 0.5 0.5
0 0 1

27
1 0 0
0.5 0.5 0
0 1 0
0.5 0.5 0
0.25 0.5 0.25
0 0.5 0.5
0 1 0
0 0.5 0.5
0 0 1

27
1 0 0
0.5 0.5 0
0 1 0
0.5 0.5 0
0.25 0.5 0.25
0 0.5 0.5
0 1 0
0 0.5 0.5
0 0 1

27
1 0 0
0.5 0.5 0
0 1 0
0.5 0.5 0
0.25 0.5 0.25
0 0.5 0.5
0 1 0
0 0.5 0.5
0 0 1

27
1 0 0
0.5 0.5 0
0 1 0
0.5 0.5 0
0.25 0.5 0.25
0 0.5 0.5
0 1 0
0 0.5 0.5
0 0 1

27
1 0 0
0.5 0.5 0
0 1 0
0.5 0.5 0
0.25 0.5 0.25
0 0.5 0.5
0 1 0
0 0.5 0.5
0 0 1

27
1 0 0
0.5 0.5 0
0 1 0
0.5 0.5 0
0.25 0.5 0.25
0 0.5 0.5
0 1 0
0 0.5 0.5
0 0 1

27
1 0 0
0.5 0.5 0
0 1 0
0.5 0.5 0
0.25 0.5 0.25
0 0.5 0.5
0 1 0
0 0.5 0.5
0 0 1

27
1 0 0
0.5 0.5 0
0 1 0
0.5 0.5 0
0.25 0.5 0.25
0 0.5 0.5
0 1 0
0 0.5 0.5
0 0 1

27
1 0 0
0.5 0.5 0
0 1 0
0.5 0.5 0
0.25 0.5 0.25
0 0.5 0.5
0 1 0
0 0.5 0.5
0 0 1

27
1 0 0
0.5 0.5 0
0 1 0
0.5 0.5 0
0.25 0.5 0.25
0 0.5 0.5
0 1 0
0 0.5 0.5
0 0 1

27
1 0 0
0.5 0.5 0
0 1 0
0.5 0.5 0
0.25 0.5 0.25
0 0.5 0.5
0 1 0
0 0.5 0.5
0 0 1

27
1 0 0
0.5 0.5 0
0 1 0
0.5 0.5 0
0.25 0.5 0.25
0 0.5 0.5
0 1 0
0 0.5 0.5
0 0 1

27
1 0 0
0.5 0.5 0
0 1 0
0.5 0.5 0
0.25 0.5 0.25
0 0.5 0.5
0 1 0
0 0.5 0.5
0 0 1

27
1 0 0
0.5 0.5 0
0 1 0
0.5 0.5 0
0.25 0.5 0.25
0 0.5 0.5
0 1 0
0 0.5 0.5
0 0 1

3
0.360671 0.479776 0.159553

27
1 0 0
0.5 0.5 0
0 1 0
0.5 0.5 0
0.25 0.5 0.25
0 0.5 0.5
0 1 0
0 0.5 0.5
0 0 1

27
1 0 0
0.5 0.5 0
0 1 0
0.5 0.5 0
0.25 0.5 0.25
0 0.5 0.5
0 1 0
0 0.5 0.5
0 0 1

27
1 0 0
0.5 0.5 0
0 1 0
0.5 0.5 0
0.25 0.5 0.25
0 0.5 0.5
0 1 0
0 0.5 0.5
0 0 1

27
1 0 0
0.5 0.5 0
0 1 0
0.5 0.5 0
0.25 0.5 0.25
0 0.5 0.5
0 1 0
0 0.5 0.5
0 0 1

27
1 0 0
0.5 0.5 0
0 1 0
0.5 0.5 0
0.25 0.5 0.25
0 0.5 0.5
0 1 0
0 0.5 0.5
0 0 1

27
1 0 0
0.5 0.5 0
0 1 0
0.5 0.5 0
0.25 0.5 0.25
0 0.5 0.5
0 1 0
0 0.5 0.5
0 0 1

27
1 0 0
0.5 0.5 0
0 1 0
0.5 0.5 0
0.25 0.5 0.25
0 0.5 0.5
0 1 0
0 0.5 0.5
0 0 1

27
1 0 0
0.5 0.5 0
0 1 0
0.5 0.5 0
0.25 0.5 0.25
0 0.5 0.5
0 1 0
0 0.5 0.5
0 0 1

27
1 0 0
0.5 0.5 0
0 1 0
0.5 0.5 0
0.25 0.5 0.25
0 0.5 0.5
0 1 0
0 0.5 0.5
0 0 1

27
1 0 0
0.5 0.5 0
0 1 0
0.5 0.5 0
0.25 0.5 0.25
0 0.5 0.5
0 1 0
0 0.5 0.5
0 0 1

27
1 0 0
0.5 0.5 0
0 1 0
0.5 0.5 0
0.25 0.5 0.25
0 0.5 0.5
0 1 0
0 0.5 0.5
0 0 1

27
1 0 0
0.5 0.5 0
0 1 0
0.5 0.5 0
0.25 0.5 0.25
0 0.5 0.5
0 1 0
0 0.5 0.5
0 0 1

27
1 0 0
0.5 0.5 0
0 1 0
0.5 0.5 0
0.25 0.5 0.25
0 0.5 0.5
0 1 0
0 0.5 0.5
0 0 1

3
0.360671 0.479776 0.159553

27
1 0 0
0.5 0.5 0
0 1 0
0.5 0.5 0
0.25 0.5 0.25
0 0.5 0.5
0 1 0
0 0.5 0.5
0 0 1

3
0.360671 0.479776 0.159553

27
1 0 0
0.5 0.5 0
0 1 0
0.5 0.5 0
0.25 0.5 0.25
0 0.5 0.5
0 1 0
0 0.5 0.5
0 0 1

27
1 0 0
0.5 0.5 0
0 1 0
0.5 0.5 0
0.25 0.5 0.25
0 0.5 0.5
0 1 0
0 0.5 0.5
0 0 1

27
1 0 0
0.5 0.5 0
0 1 0
0.5 0.5 0
0.25 0.5 0.25
0 0.5 0.5
0 1 0
0 0.5 0.5
0 0 1

27
1 0 0
0.5 0.5 0
0 1 0
0.5 0.5 0
0.25 0.5 0.25
0 0.5 0.5
0 1 0
0 0.5 0.5
0 0 1

27
1 0 0
0.5 0.5 0
0 1 0
0.5 0.5 0
0.25 0.5 0.25
0 0.5 0.5
0 1 0
0 0.5 0.5
0 0 1

3
0.360671 0.479776 0.159553

27
1 0 0
0.5 0.5 0
0 1 0
0.5 0.5 0
0.25 0.5 0.25
0 0.5 0.5
0 1 0
0 0.5 0.5
0 0 1

27
1 0 0
0.5 0.5 0
0 1 0
0.5 0.5 0
0.25 0.5 0.25
0 0.5 0.5
0 1 0
0 0.5 0.5
0 0 1

27
1 0 0
0.5 0.5 0
0 1 0
0.5 0.5 0
0.25 0.5 0.25
0 0.5 0.5
0 1 0
0 0.5 0.5
0 0 1

27
1 0 0
0.5 0.5 0
0 1 0
0.5 0.5 0
0.25 0.5 0.25
0 0.5 0.5
0 1 0
0 0.5 0.5
0 0 1

27
1 0 0
0.5 0.5 0
0 1 0
0.5 0.5 0
0.25 0.5 0.25
0 0.5 0.5
0 1 0
0 0.5 0.5
0 0 1

27
1 0 0
0.5 0.5 0
0 1 0
0.5 0.5 0
0.25 0.5 0.25
0 0.5 0.5
0 1 0
0 0.5 0.5
0 0 1

27
1 0 0
0.5 0.5 0
0 1 0
0.5 0.5 0
0.25 0.5 0.25
0 0.5 0.5
0 1 0
0 0.5 0.5
0 0 1

27
1 0 0
0.5 0.5 0
0 1 0
0.5 0.5 0
0.25 0.5 0.25
0 0.5 0.5
0 1 0
0 0.5 0.5
0 0 1

3
0.360671 0.479776 0.159553

27
1 0 0
0.5 0.5 0
0 1 0
0.5 0.5 0
0.25 0.5 0.25
0 0.5 0.5
0 1 0
0 0.5 0.5
0 0 1

27
1 0 0
0.5 0.5 0
0 1 0
0.5 0.5 0
0.25 0.5 0.25
0 0.5 0.5
0 1 0
0 0.5 0.5
0 0 1

27
1 0 0
0.5 0.5 0
0 1 0
0.5 0.5 0
0.25 0.5 0.25
0 0.5 0.5
0 1 0
0 0.5 0.5
0 0 1

27
1 0 0
0.5 0.5 0
0 1 0
0.5 0.5 0
0.25 0.5 0.25
0 0.5 0.5
0 1 0
0 0.5 0.5
0 0 1

27
1 0 0
0.5 0.5 0
0 1 0
0.5 0.5 0
0.25 0.5 0.25
0 0.5 0.5
0 1 0
0 0.5 0.5
0 0 1

27
1 0 0
0.5 0.5 0
0 1 0
0.5 0.5 0
0.25 0.5 0.25
0 0.5 0.5
0 1 0
0 0.5 0.5
0 0 1

27
1 0 0
0.5 0.5 0
0 1 0
0.5 0.5 0
0.25 0.5 0.25
0 0.5 0.5
0 1 0
0 0.5 0.5
0 0 1

27
1 0 0
0.5 0.5 0
0 1 0
0.5 0.5 0
0.25 0.5 0.25
0 0.5 0.5
0 1 0
0 0.5 0.5
0 0 1

27
1 0 0
0.5 0.5 0
0 1 0
0.5 0.5 0
0.25 0.5 0.25
0 0.5 0.5
0 1 0
0 0.5 0.5
0 0 1

27
1 0 0
0.5 0.5 0
0 1 0
0.5 0.5 0
0.25 0.5 0.25
0 0.5 0.5
0 1 0
0 0.5 0.5
0 0 1

27
1 0 0
0.5 0.5 0
0 1 0
0.5 0.5 0
0.25 0.5 0.25
0 0.5 0.5
0 1 0
0 0.5 0.5
0 0 1

27
1 0 0
0.5 0.5 0
0 1 0
0.5 0.5 0
0.25 0.5 0.25
0 0.5 0.5
0 1 0
0 0.5 0.5
0 0 1

27
1 0 0
0.5 0.5 0
0 1 0
0.5 0.5 0
0.25 0.5 0.25
0 0.5 0.5
0 1 0
0 0.5 0.5
0 0 1

27
1 0 0
0.5 0.5 0
0 1 0
0.5 0.5 0
0.25 0.5 0.25
0 0.5 0.5
0 1 0
0 0.5 0.5
0 0 1

3
0.360671 0.479776 0.159553

27
1 0 0
0.5 0.5 0
0 1 0
0.5 0.5 0
0.25 0.5 0.25
0 0.5 0.5
0 1 0
0 0.5 0.5
0 0 1

27
1 0 0
0.5 0.5 0
0 1 0
0.5 0.5 0
0.25 0.5 0.25
0 0.5 0.5
0 1 0
0 0.5 0.5
0 0 1

27
1 0 0
0.5 0.5 0
0 1 0
0.5 0.5 0
0.25 0.5 0.25
0 0.5 0.5
0 1 0
0 0.5 0.5
0 0 1

27
1 0 0
0.5 0.5 0
0 1 0
0.5 0.5 0
0.25 0.5 0.25
0 0.5 0.5
0 1 0
0 0.5 0.5
0 0 1

27
1 0 0
0.5 0.5 0
0 1 0
0.5 0.5 0
0.25 0.5 0.25
0 0.5 0.5
0 1 0
0 0.5 0.5
0 0 1

3
0.360671 0.479776 0.159553

27
1 0 0
0.5 0.5 0
0 1 0
0.5 0.5 0
0.25 0.5 0.25
0 0.5 0.5
0 1 0
0 0.5 0.5
0 0 1

27
1 0 0
0.5 0.5 0
0 1 0
0.5 0.5 0
0.25 0.5 0.25
0 0.5 0.5
0 1 0
0 0.5 0.5
0 0 1

27
1 0 0
0.5 0.5 0
0 1 0
0.5 0.5 0
0.25 0.5 0.25
0 0.5 0.5
0 1 0
0 0.5 0.5
0 0 1

27
1 0 0
0.5 0.5 0
0 1 0
0.5 0.5 0
0.25 0.5 0.25
0 0.5 0.5
0 1 0
0 0.5 0.5
0 0 1

27
1 0 0
0.5 0.5 0
0 1 0
0.5 0.5 0
0.25 0.5 0.25
0 0.5 0.5
0 1 0
0 0.5 0.5
0 0 1

27
1 0 0
0.5 0.5 0
0 1 0
0.5 0.5 0
0.25 0.5 0.25
0 0.5 0.5
0 1 0
0 0.5 0.5
0 0 1

27
1 0 0
0.5 0.5 0
0 1 0
0.5 0.5 0
0.25 0.5 0.25
0 0.5 0.5
0 1 0
0 0.5 0.5
0 0 1

27
1 0 0
0.5 0.5 0
0 1 0
0.5 0.5 0
0.25 0.5 0.25
0 0.5 0.5
0 1 0
0 0.5 0.5
0 0 1

27
1 0 0
0.5 0.5 0
0 1 0
0.5 0.5 0
0.25 0.5 0.25
0 0.5 0.5
0 1 0
0 0.5 0.5
0 0 1

27
1 0 0
0.5 0.5 0
0 1 0
0.5 0.5 0
0.25 0.5 0.25
0 0.5 0.5
0 1 0
0 0.5 0.5
0 0 1

27
1 0 0
0.5 0.5 0
0 1 0
0.5 0.5 0
0.25 0.5 0.25
0 0.5 0.5
0 1 0
0 0.5 0.5
0 0 1

27
1 0 0
0.5 0.5 0
0 1 0
0.5 0.5 0
0.25 0.5 0.25
0 0.5 0.5
0 1 0
0 0.5 0.5
0 0 1

27
1 0 0
0.5 0.5 0
0 1 0
0.5 0.5 0
0.25 0.5 0.25
0 0.5 0.5
0 1 0
0 0.5 0.5
0 0 1

27
1 0 0
0.5 0.5 0
0 1 0
0.5 0.5 0
0.25 0.5 0.25
0 0.5 0.5
0 1 0
0 0.5 0.5
0 0 1

27
1 0 0
0.5 0.5 0
0 1 0
0.5 0.5 0
0.25 0.5 0.25
0 0.5 0.5
0 1 0
0 0.5 0.5
0 0 1

27
1 0 0
0.5 0.5 0
0 1 0
0.5 0.5 0
0.25 0.5 0.25
0 0.5 0.5
0 1 0
0 0.5 0.5
0 0 1

3
0.360671 0.479776 0.159553

3
0.360671 0.479776 0.159553

3
0.360671 0.479776 0.159553

3
0.360671 0.479776 0.159553

9
0.95 0.025 0.025
0.025 0.95 0.025
0.025 0.025 0.95

9
0.95 0.025 0.025
0.025 0.95 0.025
0.025 0.025 0.95

9
0.95 0.025 0.025
0.025 0.95 0.025
0.025 0.025 0.95

9
0.95 0.025 0.025
0.025 0.95 0.025
0.025 0.025 0.95

9
0.95 0.025 0.025
0.025 0.95 0.025
0.025 0.025 0.95

9
0.95 0.025 0.025
0.025 0.95 0.025
0.025 0.025 0.95

9
0.95 0.025 0.025
0.025 0.95 0.025
0.025 0.025 0.95

9
0.95 0.025 0.025
0.025 0.95 0.025
0.025 0.025 0.95

9
0.95 0.025 0.025
0.025 0.95 0.025
0.025 0.025 0.95

9
0.95 0.025 0.025
0.025 0.95 0.025
0.025 0.025 0.95

9
0.95 0.025 0.025
0.025 0.95 0.025
0.025 0.025 0.95

9
0.95 0.025 0.025
0.025 0.95 0.025
0.025 0.025 0.95

9
0.95 0.025 0.025
0.025 0.95 0.025
0.025 0.025 0.95

9
0.95 0.025 0.025
0.025 0.95 0.025
0.025 0.025 0.95

9
0.95 0.025 0.025
0.025 0.95 0.025
0.025 0.025 0.95

9
0.95 0.025 0.025
0.025 0.95 0.025
0.025 0.025 0.95

9
0.95 0.025 0.025
0.025 0.95 0.025
0.025 0.025 0.95

9
0.95 0.025 0.025
0.025 0.95 0.025
0.025 0.025 0.95

9
0.95 0.025 0.025
0.025 0.95 0.025
0.025 0.025 0.95

9
0.95 0.025 0.025
0.025 0.95 0.025
0.025 0.025 0.95

9
0.95 0.025 0.025
0.025 0.95 0.025
0.025 0.025 0.95

9
0.95 0.025 0.025
0.025 0.95 0.025
0.025 0.025 0.95

9
0.95 0.025 0.025
0.025 0.95 0.025
0.025 0.025 0.95

9
0.95 0.025 0.025
0.025 0.95 0.025
0.025 0.025 0.95

9
0.95 0.025 0.025
0.025 0.95 0.025
0.025 0.025 0.95

9
0.95 0.025 0.025
0.025 0.95 0.025
0.025 0.025 0.95

9
0.95 0.025 0.025
0.025 0.95 0.025
0.025 0.025 0.95

9
0.95 0.025 0.025
0.025 0.95 0.025
0.025 0.025 0.95

9
0.95 0.025 0.025
0.025 0.95 0.025
0.025 0.025 0.95

9
0.95 0.025 0.025
0.025 0.95 0.025
0.025 0.025 0.95

9
0.95 0.025 0.025
0.025 0.95 0.025
0.025 0.025 0.95

9
0.95 0.025 0.025
0.025 0.95 0.025
0.025 0.025 0.95

9
0.95 0.025 0.025
0.025 0.95 0.025
0.025 0.025 0.95

9
0.95 0.025 0.025
0.025 0.95 0.025
0.025 0.025 0.95

9
0.95 0.025 0.025
0.025 0.95 0.025
0.025 0.025 0.95

9
0.95 0.025 0.025
0.025 0.95 0.025
0.025 0.025 0.95

9
0.95 0.025 0.025
0.025 0.95 0.025
0.025 0.025 0.95

9
0.95 0.025 0.025
0.025 0.95 0.025
0.025 0.025 0.95

9
0.95 0.025 0.025
0.025 0.95 0.025
0.025 0.025 0.95

9
0.95 0.025 0.025
0.025 0.95 0.025
0.025 0.025 0.95

9
0.95 0.025 0.025
0.025 0.95 0.025
0.025 0.025 0.95

9
0.95 0.025 0.025
0.025 0.95 0.025
0.025 0.025 0.95

9
0.95 0.025 0.025
0.025 0.95 0.025
0.025 0.025 0.95

9
0.95 0.025 0.025
0.025 0.95 0.025
0.025 0.025 0.95

9
0.95 0.025 0.025
0.025 0.95 0.025
0.025 0.025 0.95

9
0.95 0.025 0.025
0.025 0.95 0.025
0.025 0.025 0.95

9
0.95 0.025 0.025
0.025 0.95 0.025
0.025 0.025 0.95

9
0.95 0.025 0.025
0.025 0.95 0.025
0.025 0.025 0.95

9
0.95 0.025 0.025
0.025 0.95 0.025
0.025 0.025 0.95

9
0.95 0.025 0.025
0.025 0.95 0.025
0.025 0.025 0.95

9
0.95 0.025 0.025
0.025 0.95 0.025
0.025 0.025 0.95

9
0.95 0.025 0.025
0.025 0.95 0.025
0.025 0.025 0.95

9
0.95 0.025 0.025
0.025 0.95 0.025
0.025 0.025 0.95

9
0.95 0.025 0.025
0.025 0.95 0.025
0.025 0.025 0.95

9
0.95 0.025 0.025
0.025 0.95 0.025
0.025 0.025 0.95

9
0.95 0.025 0.025
0.025 0.95 0.025
0.025 0.025 0.95

9
0.95 0.025 0.025
0.025 0.95 0.025
0.025 0.025 0.95

9
0.95 0.025 0.025
0.025 0.95 0.025
0.025 0.025 0.95

9
0.95 0.025 0.025
0.025 0.95 0.025
0.025 0.025 0.95

9
0.95 0.025 0.025
0.025 0.95 0.025
0.025 0.025 0.95

9
0.95 0.025 0.025
0.025 0.95 0.025
0.025 0.025 0.95

9
0.95 0.025 0.025
0.025 0.95 0.025
0.025 0.025 0.95

9
0.95 0.025 0.025
0.025 0.95 0.025
0.025 0.025 0.95

9
0.95 0.025 0.025
0.025 0.95 0.025
0.025 0.025 0.95

9
0.95 0.025 0.025
0.025 0.95 0.025
0.025 0.025 0.95

9
0.95 0.025 0.025
0.025 0.95 0.025
0.025 0.025 0.95

9
0.95 0.025 0.025
0.025 0.95 0.025
0.025 0.025 0.95

9
0.95 0.025 0.025
0.025 0.95 0.025
0.025 0.025 0.95

9
0.95 0.025 0.025
0.025 0.95 0.025
0.025 0.025 0.95

9
0.95 0.025 0.025
0.025 0.95 0.025
0.025 0.025 0.95

9
0.95 0.025 0.025
0.025 0.95 0.025
0.025 0.025 0.95

9
0.95 0.025 0.025
0.025 0.95 0.025
0.025 0.025 0.95

9
0.95 0.025 0.025
0.025 0.95 0.025
0.025 0.025 0.95

9
0.95 0.025 0.025
0.025 0.95 0.025
0.025 0.025 0.95

9
0.95 0.025 0.025
0.025 0.95 0.025
0.025 0.025 0.95

9
0.95 0.025 0.025
0.025 0.95 0.025
0.025 0.025 0.95

9
0.95 0.025 0.025
0.025 0.95 0.025
0.025 0.025 0.95

9
0.95 0.025 0.025
0.025 0.95 0.025
0.025 0.025 0.95

9
0.95 0.025 0.025
0.025 0.95 0.025
0.025 0.025 0.95

9
0.95 0.025 0.025
0.025 0.95 0.025
0.025 0.025 0.95

9
0.95 0.025 0.025
0.025 0.95 0.025
0.025 0.025 0.95

9
0.95 0.025 0.025
0.025 0.95 0.025
0.025 0.025 0.95

9
0.95 0.025 0.025
0.025 0.95 0.025
0.025 0.025 0.95

9
0.95 0.025 0.025
0.025 0.95 0.025
0.025 0.025 0.95

9
0.95 0.025 0.025
0.025 0.95 0.025
0.025 0.025 0.95

9
0.95 0.025 0.025
0.025 0.95 0.025
0.025 0.025 0.95

9
0.95 0.025 0.025
0.025 0.95 0.025
0.025 0.025 0.95

9
0.95 0.025 0.025
0.025 0.95 0.025
0.025 0.025 0.95

9
0.95 0.025 0.025
0.025 0.95 0.025
0.025 0.025 0.95

9
0.95 0.025 0.025
0.025 0.95 0.025
0.025 0.025 0.95

9
0.95 0.025 0.025
0.025 0.95 0.025
0.025 0.025 0.95

9
0.95 0.025 0.025
0.025 0.95 0.025
0.025 0.025 0.95

9
0.95 0.025 0.025
0.025 0.95 0.025
0.025 0.025 0.95

9
0.95 0.025 0.025
0.025 0.95 0.025
0.025 0.025 0.95

9
0.95 0.025 0.025
0.025 0.95 0.025
0.025 0.025 0.95

9
0.95 0.025 0.025
0.025 0.95 0.025
0.025 0.025 0.95

9
0.95 0.025 0.025
0.025 0.95 0.025
0.025 0.025 0.95

9
0.95 0.025 0.025
0.025 0.95 0.025
0.025 0.025 0.95

9
0.95 0.025 0.025
0.025 0.95 0.025
0.025 0.025 0.95

9
0.95 0.025 0.025
0.025 0.95 0.025
0.025 0.025 0.95

9
0.95 0.025 0.025
0.025 0.95 0.025
0.025 0.025 0.95

9
0.95 0.025 0.025
0.025 0.95 0.025
0.025 0.025 0.95

9
0.95 0.025 0.025
0.025 0.95 0.025
0.025 0.025 0.95

9
0.95 0.025 0.025
0.025 0.95 0.025
0.025 0.025 0.95

9
0.95 0.025 0.025
0.025 0.95 0.025
0.025 0.025 0.95

9
0.95 0.025 0.025
0.025 0.95 0.025
0.025 0.025 0.95

9
0.95 0.025 0.025
0.025 0.95 0.025
0.025 0.025 0.95

9
0.95 0.025 0.025
0.025 0.95 0.025
0.025 0.025 0.95

9
0.95 0.025 0.025
0.025 0.95 0.025
0.025 0.025 0.95

9
0.95 0.025 0.025
0.025 0.95 0.025
0.025 0.025 0.95

9
0.95 0.025 0.025
0.025 0.95 0.025
0.025 0.025 0.95

9
0.95 0.025 0.025
0.025 0.95 0.025
0.025 0.025 0.95

9
0.95 0.025 0.025
0.025 0.95 0.025
0.025 0.025 0.95

9
0.95 0.025 0.025
0.025 0.95 0.025
0.025 0.025 0.95

9
0.95 0.025 0.025
0.025 0.95 0.025
0.025 0.025 0.95

9
0.95 0.025 0.025
0.025 0.95 0.025
0.025 0.025 0.95

9
0.95 0.025 0.025
0.025 0.95 0.025
0.025 0.025 0.95

9
0.95 0.025 0.025
0.025 0.95 0.025
0.025 0.025 0.95

9
0.95 0.025 0.025
0.025 0.95 0.025
0.025 0.025 0.95

9
0.95 0.025 0.025
0.025 0.95 0.025
0.025 0.025 0.95

9
0.95 0.025 0.025
0.025 0.95 0.025
0.025 0.025 0.95

9
0.95 0.025 0.025
0.025 0.95 0.025
0.025 0.025 0.95

9
0.95 0.025 0.025
0.025 0.95 0.025
0.025 0.025 0.95

9
0.95 0.025 0.025
0.025 0.95 0.025
0.025 0.025 0.95

9
0.95 0.025 0.025
0.025 0.95 0.025
0.025 0.025 0.95

9
0.95 0.025 0.025
0.025 0.95 0.025
0.025 0.025 0.95

9
0.95 0.025 0.025
0.025 0.95 0.025
0.025 0.025 0.95

9
0.95 0.025 0.025
0.025 0.95 0.025
0.025 0.025 0.95

9
0.95 0.025 0.025
0.025 0.95 0.025
0.025 0.025 0.95

9
0.95 0.025 0.025
0.025 0.95 0.025
0.025 0.025 0.95

9
0.95 0.025 0.025
0.025 0.95 0.025
0.025 0.025 0.95

9
0.95 0.025 0.025
0.025 0.95 0.025
0.025 0.025 0.95

9
0.95 0.025 0.025
0.025 0.95 0.025
0.025 0.025 0.95

9
0.95 0.025 0.025
0.025 0.95 0.025
0.025 0.025 0.95

9
0.95 0.025 0.025
0.025 0.95 0.025
0.025 0.025 0.95

9
0.95 0.025 0.025
0.025 0.95 0.025
0.025 0.025 0.95

9
0.95 0.025 0.025
0.025 0.95 0.025
0.025 0.025 0.95

9
0.95 0.025 0.025
0.025 0.95 0.025
0.025 0.025 0.95

9
0.95 0.025 0.025
0.025 0.95 0.025
0.025 0.025 0.95

9
0.95 0.025 0.025
0.025 0.95 0.025
0.025 0.025 0.95

9
0.95 0.025 0.025
0.025 0.95 0.025
0.025 0.025 0.95

9
0.95 0.025 0.025
0.025 0.95 0.025
0.025 0.025 0.95

9
0.95 0.025 0.025
0.025 0.95 0.025
0.025 0.025 0.95

9
0.95 0.025 0.025
0.025 0.95 0.025
0.025 0.025 0.95

9
0.95 0.025 0.025
0.025 0.95 0.025
0.025 0.025 0.95

9
0.95 0.025 0.025
0.025 0.95 0.025
0.025 0.025 0.95

9
0.95 0.025 0.025
0.025 0.95 0.025
0.025 0.025 0.95

9
0.95 0.025 0.025
0.025 0.95 0.025
0.025 0.025 0.95

9
0.95 0.025 0.025
0.025 0.95 0.025
0.025 0.025 0.95

9
0.95 0.025 0.025
0.025 0.95 0.025
0.025 0.025 0.95

9
0.95 0.025 0.025
0.025 0.95 0.025
0.025 0.025 0.95

9
0.95 0.025 0.025
0.025 0.95 0.025
0.025 0.025 0.95

9
0.95 0.025 0.025
0.025 0.95 0.025
0.025 0.025 0.95

9
0.95 0.025 0.025
0.025 0.95 0.025
0.025 0.025 0.95

9
0.95 0.025 0.025
0.025 0.95 0.025
0.025 0.025 0.95

9
0.95 0.025 0.025
0.025 0.95 0.025
0.025 0.025 0.95

9
0.95 0.025 0.025
0.025 0.95 0.025
0.025 0.025 0.95

9
0.95 0.025 0.025
0.025 0.95 0.025
0.025 0.025 0.95

9
0.95 0.025 0.025
0.025 0.95 0.025
0.025 0.025 0.95

9
0.95 0.025 0.025
0.025 0.95 0.025
0.025 0.025 0.95

9
0.95 0.025 0.025
0.025 0.95 0.025
0.025 0.025 0.95

9
0.95 0.025 0.025
0.025 0.95 0.025
0.025 0.025 0.95

9
0.95 0.025 0.025
0.025 0.95 0.025
0.025 0.025 0.95

9
0.95 0.025 0.025
0.025 0.95 0.025
0.025 0.025 0.95

9
0.95 0.025 0.025
0.025 0.95 0.025
0.025 0.025 0.95

9
0.95 0.025 0.025
0.025 0.95 0.025
0.025 0.025 0.95

9
0.95 0.025 0.025
0.025 0.95 0.025
0.025 0.025 0.95

9
0.95 0.025 0.025
0.025 0.95 0.025
0.025 0.025 0.95

9
0.95 0.025 0.025
0.025 0.95 0.025
0.025 0.025 0.95

9
0.95 0.025 0.025
0.025 0.95 0.025
0.025 0.025 0.95

9
0.95 0.025 0.025
0.025 0.95 0.025
0.025 0.025 0.95

9
0.95 0.025 0.025
0.025 0.95 0.025
0.025 0.025 0.95

9
0.95 0.025 0.025
0.025 0.95 0.025
0.025 0.025 0.95

9
0.95 0.025 0.025
0.025 0.95 0.025
0.025 0.025 0.95

9
0.95 0.025 0.025
0.025 0.95 0.025
0.025 0.025 0.95

9
0.95 0.025 0.025
0.025 0.95 0.025
0.025 0.025 0.95

9
0.95 0.025 0.025
0.025 0.95 0.025
0.025 0.025 0.95

9
0.95 0.025 0.025
0.025 0.95 0.025
0.025 0.025 0.95

9
0.95 0.025 0.025
0.025 0.95 0.025
0.025 0.025 0.95

