PGM/src/moissac4.pre.uai.output
Compute POE: 2.0132668173515966E-61
Total execution time->0.203 secs.